c 1 root
c 2 Precon
c 3 Solver
c 4 SeqGS
c 5 SeqSOR
c 6 CGSolver
c 7 BiCGSTABSolver
c 8 LoopSolver
c 9 GradientSolver
c 10 pre
c 11 pre_0
c 12 pre_1
c 13 pre_2
c 14 pre_3
c 15 pre_4
c 16 pre_5
c 17 pre_6
c 18 post
c 19 post_0
c 20 post_1
c 21 post_2
c 22 post_3
c 23 post_4
c 24 post_5
c 25 post_6
c 26 cells
c 27 cells_50
c 28 cells_51
c 29 cells_52
c 30 cells_53
c 31 cells_54
c 32 cells_55
p cnf 32 106
1 0
2 0
3 0
10 0
18 0
26 0
1 -2 0
1 -3 0
2 -4 0
2 -5 0
3 -6 0
3 -7 0
3 -8 0
3 -9 0
1 -10 0
10 -11 0
10 -12 0
10 -13 0
10 -14 0
10 -15 0
10 -16 0
10 -17 0
1 -18 0
18 -19 0
18 -20 0
18 -21 0
18 -22 0
18 -23 0
18 -24 0
18 -25 0
1 -26 0
26 -27 0
26 -28 0
26 -29 0
26 -30 0
26 -31 0
26 -32 0
5 4 -2 0
-5 -4 0
7 8 9 6 -3 0
-7 -8 0
-7 -9 0
-7 -6 0
-8 -9 0
-8 -6 0
-9 -6 0
12 13 14 15 16 17 11 -10 0
-12 -13 0
-12 -14 0
-12 -15 0
-12 -16 0
-12 -17 0
-12 -11 0
-13 -14 0
-13 -15 0
-13 -16 0
-13 -17 0
-13 -11 0
-14 -15 0
-14 -16 0
-14 -17 0
-14 -11 0
-15 -16 0
-15 -17 0
-15 -11 0
-16 -17 0
-16 -11 0
-17 -11 0
20 21 22 23 24 25 19 -18 0
-20 -21 0
-20 -22 0
-20 -23 0
-20 -24 0
-20 -25 0
-20 -19 0
-21 -22 0
-21 -23 0
-21 -24 0
-21 -25 0
-21 -19 0
-22 -23 0
-22 -24 0
-22 -25 0
-22 -19 0
-23 -24 0
-23 -25 0
-23 -19 0
-24 -25 0
-24 -19 0
-25 -19 0
28 29 30 31 32 27 -26 0
-28 -29 0
-28 -30 0
-28 -31 0
-28 -32 0
-28 -27 0
-29 -30 0
-29 -31 0
-29 -32 0
-29 -27 0
-30 -31 0
-30 -32 0
-30 -27 0
-31 -32 0
-31 -27 0
-32 -27 0
